WARNING: for repeatability, setting FPU to use double precision
============================[ Problem Statistics ]=============================
|                                                                             |
|  Number of variables:        223324                                         |
|  Number of clauses:          517743                                         |
|  Parse time:                   0.16 s                                       |
|                                                                             |
============================[ Search Statistics ]==============================
| Conflicts |          ORIGINAL         |          LEARNT          | Progress |
|           |    Vars  Clauses Literals |    Limit  Clauses Lit/Cl |          |
===============================================================================
|       100 |  123390   496472  1115534 |   182039      100      8 | 44.748 % |
|       250 |  123390   496472  1115534 |   200243      250     15 | 44.748 % |
|       475 |  123390   496472  1115534 |   220268      475     60 | 44.748 % |
|       812 |  123390   496472  1115534 |   242294      812     46 | 44.748 % |
|      1318 |  123390   496472  1115534 |   266524     1318     61 | 44.748 % |
===============================================================================
restarts              : 10
conflicts             : 1542           (2106 /sec)
decisions             : 22708          (0.00 % random) (31020 /sec)
propagations          : 3624650        (4951403 /sec)
conflict literals     : 98741          (6.06 % deleted)
Memory used           : 57.00 MB
CPU time              : 0.732045 s

SATISFIABLE
